n_res = 4;
rc = [ 42, 52, 66, 52 ];
n_tasks = 120;
d = [ 4, 5, 7, 1, 9, 5, 3, 7, 9, 2, 5, 1, 6, 7, 3, 9, 7, 6, 5, 10, 9, 9, 3, 4, 2, 4, 4, 5, 4, 6, 8, 9, 9, 9, 9, 2, 3, 4, 9, 9, 9, 2, 7, 5, 8, 8, 8, 1, 7, 7, 2, 9, 4, 5, 8, 3, 6, 4, 10, 7, 9, 8, 1, 4, 2, 6, 8, 8, 10, 10, 5, 2, 7, 2, 10, 9, 5, 7, 8, 1, 10, 7, 3, 10, 8, 1, 6, 2, 3, 5, 7, 4, 3, 7, 3, 7, 1, 6, 5, 1, 10, 1, 1, 6, 7, 9, 3, 6, 4, 5, 10, 3, 9, 10, 1, 6, 6, 8, 4, 7 ];
rr = [| 1, 10, 1, 9, 8, 1, 6, 3, 2, 7, 3, 5, 1, 3, 10, 8, 4, 4, 8, 4, 2, 3, 2, 6, 10, 3, 2, 4, 4, 6, 1, 6, 1, 8, 9, 10, 10, 3, 9, 7, 8, 6, 8, 3, 6, 2, 8, 2, 5, 6, 10, 7, 6, 3, 10, 3, 3, 6, 1, 4, 10, 10, 5, 7, 1, 1, 1, 5, 8, 6, 3, 7, 10, 6, 3, 5, 7, 3, 7, 7, 5, 6, 2, 4, 1, 1, 9, 5, 4, 1, 4, 10, 9, 9, 8, 4, 1, 2, 8, 6, 8, 1, 8, 4, 7, 9, 5, 1, 7, 1, 6, 2, 5, 3, 9, 2, 2, 1, 7, 2
      | 10, 8, 5, 10, 7, 9, 4, 7, 8, 3, 9, 8, 8, 3, 7, 6, 4, 5, 6, 8, 10, 3, 1, 2, 6, 4, 2, 9, 2, 2, 2, 4, 5, 10, 6, 3, 9, 5, 6, 4, 2, 8, 6, 1, 9, 6, 5, 5, 10, 3, 7, 3, 4, 5, 8, 10, 10, 2, 1, 3, 5, 1, 5, 6, 4, 4, 6, 4, 3, 10, 6, 5, 1, 4, 1, 1, 3, 8, 9, 3, 1, 10, 10, 3, 6, 8, 4, 7, 5, 9, 8, 6, 9, 4, 10, 3, 10, 9, 4, 4, 2, 2, 4, 5, 7, 7, 5, 3, 5, 7, 1, 9, 4, 4, 7, 3, 9, 6, 6, 7
      | 6, 10, 5, 6, 5, 6, 9, 2, 4, 8, 9, 6, 5, 9, 10, 6, 10, 9, 9, 4, 5, 1, 9, 2, 1, 10, 10, 3, 8, 2, 1, 9, 4, 7, 8, 6, 2, 5, 8, 6, 9, 9, 2, 10, 7, 10, 5, 5, 3, 6, 8, 6, 9, 5, 2, 6, 10, 7, 4, 4, 2, 3, 3, 9, 5, 10, 4, 10, 7, 10, 6, 2, 9, 3, 4, 7, 6, 9, 9, 9, 6, 3, 9, 10, 10, 7, 9, 10, 10, 2, 2, 8, 7, 8, 10, 5, 4, 8, 3, 8, 8, 8, 5, 5, 9, 5, 10, 5, 2, 4, 6, 5, 8, 4, 3, 5, 7, 10, 7, 10
      | 3, 3, 6, 9, 10, 9, 10, 7, 6, 8, 4, 9, 4, 6, 6, 1, 6, 3, 2, 5, 6, 5, 8, 1, 2, 1, 6, 2, 6, 10, 3, 2, 6, 9, 3, 6, 5, 2, 2, 3, 4, 4, 6, 6, 6, 10, 2, 8, 1, 8, 3, 1, 10, 9, 3, 2, 5, 9, 8, 1, 3, 9, 5, 5, 4, 8, 10, 10, 9, 2, 1, 5, 1, 1, 3, 3, 1, 4, 10, 5, 10, 10, 10, 8, 3, 7, 1, 5, 6, 9, 4, 6, 1, 2, 5, 1, 6, 9, 8, 8, 10, 3, 4, 6, 2, 2, 9, 7, 6, 10, 7, 2, 5, 2, 3, 5, 7, 7, 10, 1 |];
suc = [ { 5, 6, 13 },
       { 4, 14, 53 },
       { 7, 8, 43 },
       { 16, 40 },
       { 39, 59, 79 },
       { 10, 11, 25 },
       { 12, 29, 39 },
       { 9, 15, 32 },
       { 28, 108 },
       { 20, 21, 22 },
       { 20, 30, 39 },
       { 22, 26, 66 },
       { 36, 109, 120 },
       { 42, 52, 87 },
       { 23, 35, 40 },
       { 17, 30, 36 },
       { 18, 24, 55 },
       { 19, 21, 50 },
       { 25, 45, 116 },
       { 70, 92 },
       { 23, 59, 62 },
       { 41, 76, 101 },
       { 63, 99 },
       { 27, 61, 91 },
       { 38 },
       { 30, 51 },
       { 41, 57, 59 },
       { 41, 57 },
       { 31, 33, 106 },
       { 33, 34, 63 },
       { 48, 53, 62 },
       { 58, 73, 93 },
       { 38, 44, 77 },
       { 46, 89 },
       { 37, 49, 96 },
       { 45, 70, 77 },
       { 54, 87, 89 },
       { 56, 71, 104 },
       { 40, 57 },
       { 44, 64, 83 },
       { 73 },
       { 82 },
       { 44, 51, 74 },
       { 47, 56, 78 },
       { 73, 90 },
       { 71, 80, 107 },
       { 55, 109 },
       { 69, 104 },
       { 53, 79, 105 },
       { 52, 54, 63 },
       { 65, 67 },
       { 75, 99, 113 },
       { 71, 84, 103 },
       { 60, 61, 90 },
       { 61, 69, 75 },
       { 88, 97 },
       { 85 },
       { 67, 68, 95 },
       { 87 },
       { 72, 80, 94 },
       { 62, 103 },
       { 72 },
       { 95 },
       { 78, 96 },
       { 98 },
       { 69, 86, 102 },
       { 83, 103, 115 },
       { 70, 102, 105 },
       { 72, 91 },
       { 99 },
       { 85, 88, 108 },
       { 82, 84 },
       { 110 },
       { 76, 79, 98 },
       { 86, 107 },
       { 77, 78, 94 },
       { 89, 93 },
       { 81, 95, 97 },
       { 81, 85, 100 },
       { 81, 93, 116 },
       { 82, 84 },
       { 113 },
       { 86, 91 },
       { 111 },
       { 92, 115 },
       { 92 },
       { 88, 97, 98 },
       { 90, 117 },
       { 116 },
       { 119 },
       { 96, 101 },
       { 112 },
       { 114 },
       { 100, 110, 112 },
       { 108 },
       { 113 },
       { 119 },
       { 100, 105 },
       { 101 },
       { 102 },
       { 114 },
       { 106 },
       { 104 },
       { 111, 120 },
       { 106, 112 },
       { 107 },
       { 115 },
       { 109, 119 },
       { 110 },
       { 111 },
       { 118 },
       { 114 },
       { 117 },
       { 118 },
       { 117 },
       { 118 },
       { 120 },
       {  },
       {  },
       {  } ];
